16981
16982
17024
17023
17021
17022
17020
17019
17017
17018
17222
17221
17220
17219
17218
17217
17016
17015
17013
17014
17012
17011
17009
17010
17008
17007
17005
17006
17004
17003
17001
17002
17000
16999
16997
16998
16996
16995
16993
16994
17054
17053
17052
17051
17050
17049
17048
17047
17046
17045
17044
17043
17042
17041
17040
17039
17038
17037
17291
17293
17296
17055
17056
17057
17058
17059
17060
17061
17062
17063
17064
17065
17066
17067
17068
17069
17070
17071
17072
17073
17074
17075
17076
17302
17303
17077
17078
17079
17080
17081
17082
17083
17084
17085
17086
17087
17088
17089
17090
17091
17092
17093
17094
17095
17096
17307
17309
17097
17098
17099
17100
17101
17102
17310
17103
17104
17105
17106
17107
17108
17109
17110
17311
17312
17111
17112
17113
17114
17115
17116
17117
17118
17119
17120
17121
17316
17122
17123
17124
17317
17319
17318
17125
17126
17127
17128
17129
17130
17131
17132
17133
17134
17135
17136
17137
17138
17139
17140
17141
17142
17143
17144
17145
17146
17147
17148
17149
17150
17151
17152
17326
17153
17154
17155
17156
17157
17158
17159
17160
17328
17161
17162
17163
17164
17165
17166
17329
17167
17168
17169
17170
17171
17172
17173
17174
17175
17176
17177
17178
17179
17180
17181
17182
17183
17184
17185
17186
17187
17188
17189
17190
17191
17336
17337
17192
17193
17194
17195
17196
17197
17198
17199
17200
17201
17202
17203
17204
17205
17206
17340
17207
17208
17209
17210
17211
17212
17213
17214
17215
17216
17343
17345
17223
17224
17225
17226
17227
17228
17229
17230
17231
17232
17233
17234
17235
17236
17348
17237
17238
17239
17240
17241
17242
17243
17244
17245
17350
17246
17247
17248
17249
17250
17353
17251
17252
17253
17254
17355
17356
17255
17256
17257
17258
17259
17260
17261
17262
17263
17264
17357
17265
17266
17267
17268
17269
17359
17360
17270
17271
17272
17273
17274
17275
17276
17277
17278
17279
17280
17281
17282
17283
17284
17285
17286
17362
17289
17288
17287
